1 -1 0
1 -2 0
1 -3 0
1 -4 0
1 -5 0
1 -6 0
1 -7 0
1 -8 0
1 -9 0
1 -10 0
1 -11 0
1 -12 0
1 -13 0
1 -14 0
1 -15 0
1 -16 0
1 -17 0
1 -18 0
1 -19 0
1 -20 0
1 -21 0
1 -22 0
1 -23 0
1 -24 0
1 -25 0
1 -26 0
1 -27 0
1 -28 0
1 -29 0
1 -30 0
1 -31 0
1 -32 0
1 -33 0
1 -34 0
1 -35 0
1 -36 0
1 -37 0
1 -38 0
1 -39 0
1 -40 0
1 -41 0
1 -42 0
1 -43 0
1 -44 0
1 -45 0
1 -46 0
1 -47 0
1 -48 0
1 -49 0
1 -50 0
1 -51 0
1 -52 0
1 -53 0
1 -54 0
1 -55 0
1 -56 0
1 -57 0
1 -58 0
1 -59 0
1 -60 0
1 -61 0
1 -62 0
1 -63 0
1 -64 0
1 -65 0
1 -66 0
1 -67 0
1 -68 0
1 -69 0
1 -70 0
1 -71 0
1 -72 0
1 -73 0
1 -74 0
1 -75 0
1 -76 0
1 -77 0
1 -78 0
1 -79 0
1 -80 0
1 -81 0
1 -82 0
1 -83 0
1 -84 0
1 -85 0
1 -86 0
1 -87 0
1 -88 0
1 -89 0
1 -90 0
1 -91 0
1 -92 0
1 -93 0
1 -94 0
1 -95 0
1 -96 0
1 -97 0
1 -98 0
1 -99 0
1 -100 0
1 -101 0
1 -102 0
1 -103 0
1 -104 0
1 -105 0
1 -106 0
1 -107 0
1 -108 0
1 -109 0
1 -110 0
1 -111 0
1 -112 0
1 -113 0
1 -114 0
1 -115 0
1 -116 0
1 -117 0
1 -118 0
1 -119 0
1 -120 0
1 -121 0
1 -122 0
1 -123 0
1 -124 0
1 -125 0
1 -126 0
1 -127 0
1 -128 0
1 -129 0
1 -130 0
1 -131 0
1 -132 0
1 -133 0
1 -134 0
1 -135 0
1 -136 0
1 -137 0
1 -138 0
1 -139 0
1 -140 0
1 -141 0
1 -142 0
1 -143 0
1 -144 0
1 -145 0
1 -146 0
1 -147 0
1 -148 0
1 -149 0
1 -150 0
1 -151 0
1 -152 0
1 -153 0
1 -154 0
1 -155 0
1 -156 0
1 -157 0
1 -158 0
1 -159 0
1 -160 0
1 -161 0
1 -162 0
1 -163 0
1 -164 0
1 -165 0
1 -166 0
1 -167 0
1 -168 0
1 -169 0
1 -170 0
1 -171 0
1 -172 0
1 -173 0
1 -174 0
1 -175 0
1 -176 0
1 -177 0
1 -178 0
1 -179 0
1 -180 0
1 -181 0
1 -182 0
1 -183 0
1 -184 0
1 -185 0
1 -186 0
1 -187 0
1 -188 0
1 -189 0
1 -190 0
1 -191 0
1 -192 0
1 -193 0
1 -194 0
1 -195 0
1 -196 0
1 -197 0
1 -198 0
1 -199 0
1 -200 0
1 -201 0
1 -202 0
1 -203 0
1 -204 0
1 -205 0
1 -206 0
1 -207 0
1 -208 0
1 -209 0
1 -210 0
1 -211 0
1 -212 0
1 -213 0
1 -214 0
1 -215 0
1 -216 0
1 -217 0
1 -218 0
1 -219 0
1 -220 0
1 -221 0
1 -222 0
1 -223 0
1 -224 0
1 -225 0
1 -226 0
1 -227 0
1 -228 0
1 -229 0
1 -230 0
1 -231 0
1 -232 0
1 -233 0
1 -234 0
1 -235 0
1 -236 0
1 -237 0
1 -238 0
1 -239 0
1 -240 0
1 -241 0
1 -242 0
1 -243 0
1 -244 0
1 -245 0
1 -246 0
1 -247 0
1 -248 0
1 -249 0
1 -250 0
1 -251 0
1 -252 0
1 -253 0
1 -254 0
1 -255 0
1 -256 0
1 -257 0
1 -258 0
1 -259 0
1 -260 0
1 -261 0
1 -262 0
1 -263 0
1 -264 0
1 -265 0
1 -266 0
1 -267 0
1 -268 0
1 -269 0
1 -270 0
1 -271 0
1 -272 0
1 -273 0
1 -274 0
1 -275 0
1 -276 0
1 -277 0
1 -278 0
1 -279 0
1 -280 0
1 -281 0
1 -282 0
1 -283 0
1 -284 0
1 -285 0
1 -286 0
1 -287 0
1 -288 0
1 -289 0
1 -290 0
1 -291 0
1 -292 0
1 -293 0
1 -294 0
1 -295 0
1 -296 0
1 -297 0
1 -298 0
1 -299 0
1 -300 0
1 -301 0
1 -302 0
1 -303 0
1 -304 0
1 -305 0
1 -306 0
1 -307 0
1 -308 0
1 -309 0
1 -310 0
1 -311 0
1 -312 0
1 -313 0
1 -314 0
1 -315 0
1 -316 0
1 -317 0
1 -318 0
1 -319 0
1 -320 0
1 -321 0
1 -322 0
1 -323 0
1 -324 0
1 -325 0
1 -326 0
1 -327 0
1 -328 0
1 -329 0
1 -330 0
h 3 4 7 10 21 26 31 106 107 108 109 110 111 112 113 114 115 116 117 118 119 120 0
h 4 5 6 8 22 27 32 121 122 123 124 125 126 127 128 129 130 131 132 133 134 135 0
h 1 5 7 9 23 28 33 136 137 138 139 140 141 142 143 144 145 146 147 148 149 150 0
h 1 2 8 10 24 29 34 151 152 153 154 155 156 157 158 159 160 161 162 163 164 165 0
h 2 3 6 9 25 30 35 166 167 168 169 170 171 172 173 174 175 176 177 178 179 180 0
h 1 6 13 14 17 20 31 181 182 183 184 185 186 187 188 189 190 191 192 193 194 195 0
h 2 7 14 15 16 18 32 196 197 198 199 200 201 202 203 204 205 206 207 208 209 210 0
h 3 8 11 15 17 19 33 211 212 213 214 215 216 217 218 219 220 221 222 223 224 225 0
h 4 9 11 12 18 20 34 226 227 228 229 230 231 232 233 234 235 236 237 238 239 240 0
h 5 10 12 13 16 19 35 241 242 243 244 245 246 247 248 249 250 251 252 253 254 255 0
h 11 16 23 24 27 30 31 256 257 258 259 260 261 262 263 264 265 266 267 268 269 270 0
h 12 17 24 25 26 28 32 271 272 273 274 275 276 277 278 279 280 281 282 283 284 285 0
h 13 18 21 25 27 29 33 286 287 288 289 290 291 292 293 294 295 296 297 298 299 300 0
h 14 19 21 22 28 30 34 301 302 303 304 305 306 307 308 309 310 311 312 313 314 315 0
h 15 20 22 23 26 29 35 316 317 318 319 320 321 322 323 324 325 326 327 328 329 330 0
h 38 39 42 45 56 61 66 106 121 136 151 166 181 196 211 226 241 256 271 286 301 316 0
h 39 40 41 43 57 62 67 107 122 137 152 167 182 197 212 227 242 257 272 287 302 317 0
h 36 40 42 44 58 63 68 108 123 138 153 168 183 198 213 228 243 258 273 288 303 318 0
h 36 37 43 45 59 64 69 109 124 139 154 169 184 199 214 229 244 259 274 289 304 319 0
h 37 38 41 44 60 65 70 110 125 140 155 170 185 200 215 230 245 260 275 290 305 320 0
h 36 41 48 49 52 55 66 111 126 141 156 171 186 201 216 231 246 261 276 291 306 321 0
h 37 42 49 50 51 53 67 112 127 142 157 172 187 202 217 232 247 262 277 292 307 322 0
h 38 43 46 50 52 54 68 113 128 143 158 173 188 203 218 233 248 263 278 293 308 323 0
h 39 44 46 47 53 55 69 114 129 144 159 174 189 204 219 234 249 264 279 294 309 324 0
h 40 45 47 48 51 54 70 115 130 145 160 175 190 205 220 235 250 265 280 295 310 325 0
h 46 51 58 59 62 65 66 116 131 146 161 176 191 206 221 236 251 266 281 296 311 326 0
h 47 52 59 60 61 63 67 117 132 147 162 177 192 207 222 237 252 267 282 297 312 327 0
h 48 53 56 60 62 64 68 118 133 148 163 178 193 208 223 238 253 268 283 298 313 328 0
h 49 54 56 57 63 65 69 119 134 149 164 179 194 209 224 239 254 269 284 299 314 329 0
h 50 55 57 58 61 64 70 120 135 150 165 180 195 210 225 240 255 270 285 300 315 330 0
h 73 74 77 80 91 96 101 106 129 142 160 173 191 198 215 227 244 261 285 299 313 327 0
h 74 75 76 78 92 97 102 114 122 145 158 171 185 207 214 226 243 268 277 296 315 329 0
h 71 75 77 79 93 98 103 112 130 138 156 174 184 196 223 230 242 270 284 293 312 326 0
h 71 72 78 80 94 99 104 115 128 141 154 172 183 200 212 239 241 267 281 300 309 328 0
h 72 73 76 79 95 100 105 113 126 144 157 170 182 199 211 228 255 269 283 297 311 325 0
h 71 76 83 84 87 90 101 116 125 139 153 167 186 209 222 240 253 256 278 295 307 324 0
h 72 77 84 85 86 88 102 108 132 136 155 169 194 202 225 238 251 265 272 294 306 323 0
h 73 78 81 85 87 89 103 110 124 148 152 166 192 210 218 236 254 264 276 288 310 322 0
h 74 79 81 82 88 90 104 107 121 140 164 168 195 208 221 234 252 263 280 292 304 321 0
h 75 80 82 83 86 89 105 109 123 137 151 180 193 206 224 237 250 262 279 291 308 320 0
h 81 86 93 94 97 100 101 111 133 150 162 179 181 205 219 233 247 266 274 287 305 318 0
h 82 87 94 95 96 98 102 120 127 149 161 178 188 197 216 235 249 259 282 290 303 316 0
h 83 88 91 95 97 99 103 119 131 143 165 177 190 204 213 232 246 257 275 298 301 319 0
h 84 89 91 92 98 100 104 118 135 147 159 176 187 201 220 229 248 260 273 286 314 317 0
h 85 90 92 93 96 99 105 117 134 146 163 175 189 203 217 231 245 258 271 289 302 330 0
